proyfinal/src/viki/013/experimentInOfficeAgust.take6.output/11dfa733-c3db-43d9-b2ea-939d01991133.als.dat
{'cnf.clauses': '118081',
 'cnf.totvars': '69608',
 'conflict literals': '7',
 'conflicts': '6',
 'decisions': '1810',
 'memused.mb': '17.24',
 'outcome': 'UNSAT',
 'propagations': '23990',
 'restarts': '1',
 'solver.msecs': 31,
 'task.msecs': 150}
