proyfinal/src/viki/013/experimentInOfficeAgust.take6.output/11dfa733-c3db-43d9-b2ea-939d01991133.als.out
Reading from standard input... Use '--help' for help.
============================[ Problem Statistics ]=============================
|                                                                             |
|  Number of variables:         69608                                         |
|  Number of clauses:          118081                                         |
|  Parse time:                   0.02 s                                       |
|                                                                             |
============================[ Search Statistics ]==============================
| Conflicts |          ORIGINAL         |          LEARNT          | Progress |
|           |    Vars  Clauses Literals |    Limit  Clauses Lit/Cl |          |
===============================================================================
===============================================================================
restarts              : 1
conflicts             : 6              (188 /sec)
decisions             : 1810           (0.00 % random) (56578 /sec)
propagations          : 23990          (749898 /sec)
conflict literals     : 7              (0.00 % deleted)
Memory used           : 17.24 MB
CPU time              : 0.031991 s

UNSATISFIABLE
